7970
1 0 0 1 0 1 1 0 0 0 0 1 0 0 0 0 0 0 1 1 
0 0 0 0 0 0 0 0 0 3 3 3 3 3 3 5 5 5 5 5 5 5 5 5 6 6 6 6 6 6 6 11 11 5 11 11 11 5 11 5 6 5 11 11 11 11 11 11 11 11 11 11 11 11 11 11 19 5 19 0 19 19 19 19 19 19 19 19 19 19 19 19 19 18 18 19 18 19 19 19 
